4
5
0 739 827 889 805 
739 0 441 151 157 
827 441 0 503 595 
889 151 503 0 155 
805 157 595 155 0 
0 234 360 268 328 
234 0 360 84 530 
360 360 0 293 391 
268 84 293 0 523 
328 530 391 523 0 
0 294 604 531 499 
294 0 741 361 358 
604 741 0 619 566 
531 361 619 0 53 
499 358 566 53 0 
0 462 755 798 523 
462 0 320 593 392 
755 320 0 779 661 
798 593 779 0 275 
523 392 661 275 0 
